unsat
(:cnf-encoding-aux-vars 9
 :eliminated-vars       23
 :max-memory            18.22
 :memory                18.02
 :nlsat-conflicts       8
 :nlsat-decisions       17
 :nlsat-learned-added   7
 :nlsat-propagations    38
 :nlsat-stages          3
 :num-allocs            9251
 :rlimit-count          11027
 :time                  0.00
 :total-time            0.02)
